[
4.75240
,
5.56960
]
ID:x1
;
[
4.0
,
4.75240
]
ID:x2
;
[
4.0
,
4.75240
]
ID:x3
;
[
5.06250
,
6.35040
]
ID:x4
;
[
4.0
,
6.35040
]
ID:x5
;
[
4.0
,
6.35040
]
ID:x6
;
(
(
ID:not
(
(
<
(
+
(
*
1.00
(
-
1.5420
)
)
(
+
(
*
(
^
ID:x1
0.5
)
(
-
0.3625190
)
)
(
+
(
*
1.00
(
*
0.3625190
2.360
)
)
(
+
(
*
(
^
ID:x2
0.5
)
0.2986910
)
(
+
(
*
1.00
(
*
0.2986910
(
-
2.0
)
)
)
(
+
(
*
(
^
ID:x3
0.5
)
0.2870650
)
(
+
(
*
1.00
(
*
0.2870650
(
-
2.0
)
)
)
(
+
(
*
(
^
ID:x4
0.5
)
(
-
0.9207850
)
)
(
+
(
*
1.00
(
*
0.9207850
2.250
)
)
(
+
(
*
(
^
ID:x5
0.5
)
0.1909170
)
(
+
(
*
1.00
(
*
0.1909170
(
-
2.0
)
)
)
(
+
(
*
(
^
ID:x6
0.5
)
0.2191320
)
(
+
(
*
1.00
(
*
0.2191320
(
-
2.0
)
)
)
(
+
(
/
3.14159265
2.00
)
(
ID:atn2
(
^
(
*
4.00
(
*
ID:x1
(
+
(
*
ID:x1
(
*
ID:x4
(
+
(
-
ID:x1
)
(
+
ID:x2
(
+
(
-
ID:x3
ID:x4
)
(
+
ID:x5
ID:x6
)
)
)
)
)
)
(
+
(
*
ID:x2
(
*
ID:x5
(
+
(
-
ID:x1
ID:x2
)
(
+
ID:x3
(
+
(
-
ID:x4
ID:x5
)
ID:x6
)
)
)
)
)
(
-
(
-
(
-
(
-
(
*
ID:x3
(
*
ID:x6
(
+
ID:x1
(
+
(
-
ID:x2
ID:x3
)
(
+
ID:x4
(
-
ID:x5
ID:x6
)
)
)
)
)
)
(
*
ID:x2
(
*
ID:x3
ID:x4
)
)
)
(
*
ID:x1
(
*
ID:x3
ID:x5
)
)
)
(
*
ID:x1
(
*
ID:x2
ID:x6
)
)
)
(
*
ID:x4
(
*
ID:x5
ID:x6
)
)
)
)
)
)
)
0.5
)
(
-
(
+
(
-
(
*
(
-
ID:x2
)
ID:x3
)
(
*
ID:x1
ID:x4
)
)
(
+
(
*
ID:x2
ID:x5
)
(
+
(
-
(
*
ID:x3
ID:x6
)
(
*
ID:x5
ID:x6
)
)
(
*
ID:x1
(
+
(
-
ID:x1
)
(
+
ID:x2
(
+
(
-
ID:x3
ID:x4
)
(
+
ID:x5
ID:x6
)
)
)
)
)
)
)
)
)
)
)
)
)
)
)
)
)
)
)
)
)
)
)
)
0.00
)
)
)
)
(set-logic QF_NRA)
(declare-fun x1 () Real)
(declare-fun x2 () Real)
(declare-fun x3 () Real)
(declare-fun x4 () Real)
(declare-fun x5 () Real)
(declare-fun x6 () Real)
(assert (<= 4.7524 x1))
(assert (<= x1 5.5696))
(assert (<= 4.0 x2))
(assert (<= x2 4.7524))
(assert (<= 4.0 x3))
(assert (<= x3 4.7524))
(assert (<= 5.0625 x4))
(assert (<= x4 6.3504))
(assert (<= 4.0 x5))
(assert (<= x5 6.3504))
(assert (<= 4.0 x6))
(assert (<= x6 6.3504))
(assert (not (< (+ (* 1.0 (- 1.542)) (+ (* (^ x1 0.5) (- 0.362519)) (+ (* 1.0 (* 0.362519 2.36)) (+ (* (^ x2 0.5) 0.298691) (+ (* 1.0 (* 0.298691 (- 2.0))) (+ (* (^ x3 0.5) 0.287065) (+ (* 1.0 (* 0.287065 (- 2.0))) (+ (* (^ x4 0.5) (- 0.920785)) (+ (* 1.0 (* 0.920785 2.25)) (+ (* (^ x5 0.5) 0.190917) (+ (* 1.0 (* 0.190917 (- 2.0))) (+ (* (^ x6 0.5) 0.219132) (+ (* 1.0 (* 0.219132 (- 2.0))) (+ (/ 3.14159265 2.0) (arctan2 (^ (* 4.0 (* x1 (+ (* x1 (* x4 (+ (- x1) (+ x2 (+ (- x3 x4) (+ x5 x6)))))) (+ (* x2 (* x5 (+ (- x1 x2) (+ x3 (+ (- x4 x5) x6))))) (- (- (- (- (* x3 (* x6 (+ x1 (+ (- x2 x3) (+ x4 (- x5 x6)))))) (* x2 (* x3 x4))) (* x1 (* x3 x5))) (* x1 (* x2 x6))) (* x4 (* x5 x6))))))) 0.5) (- (+ (- (* (- x2) x3) (* x1 x4)) (+ (* x2 x5) (+ (- (* x3 x6) (* x5 x6)) (* x1 (+ (- x1) (+ x2 (+ (- x3 x4) (+ x5 x6)))))))))))))))))))))))) 0.0)))
(check-sat)
(exit)
